2171.43
0 2 8 5 104 155 140 52 38 48 25 100 149 121 42 43 124 170 70 141 53 173 144 62 7 133 93 101 160 112 4 114 152 58 24 169 119 23 157 92 1 60 153 41 80 10 29 156 40 88 137 45 86 18 30 57 31 132 82 79 168 150 77 51 20 26 54 118 35 27 46 161 66 113 138 165 90 130 21 37 39 167 172 162 67 154 84 147 15 68 73 146 13 3 81 44 59 171 85 105 47 76 158 65 61 111 128 28 87 126 95 11 134 131 135 9 174 116 78 117 143 22 32 14 12 74 64 56 122 16 72 103 55 166 108 97 136 164 159 71 91 115 163 145 63 142 33 148 96 102 99 69 106 109 19 120 36 34 94 107 125 89 6 98 139 151 17 75 49 110 127 83 129 50 123
